language Essence 1.3

letting bot_end be
        [15, 13, 349, 342, 260, 363, 348, 293, 10, 350, 353, 39, 343, 29, 301, 14, 22, 357, 36, 1, 18; int(1..21)]
letting bot_start be
        [214, 320, 94, 161, 82, 183, 43, 80, 196, 160, 107, 290, 104, 274, 131, 194, 299, 179, 301, 238, 337;
             int(1..21)]
letting buffer_col be 2
letting buffer_row be 2
letting corridor_size be 1
letting n_shelves_col be 1
letting n_shelves_row be 24
letting shelf_col_size be 2
letting shelf_row_size be 1
